Maximize
 obj1: - z + 0 xab + 0 floab + 0 flobc + 0 flobh + 0 faab + 0 fgbd + 0 fgcd + 0 fgda + 0 fgdb + 0 fgdc + 0 xbc + 0 fabc + 0 xfa + 0 fcfa + 0 xah + 0 xba + 0 xbc + 0 xbd + 0 xcd  + 0 xce  + 0 xcf  + 0 xcg  + 0 xch  + 0 xda  + 0 xdb  + 0 xdc  + 0 xde  + 0 xdf  + 0 xdg + 0 xdh + 0 xea + 0 xeb + 0 xec + 0 xed + 0 xef + 0 xeg + 0 xeh 
Subject To
 obj_o: - 0.005079894920383 z - 2 xab - floab - flobc - flobh - faab - fgbd - fgcd - fgda - fgdb - fgdc - 2 xbc - fabc - .3 xfa - .36 fcfa - .8 xah - .46 xba - .1 xbc - .5 xbd - .5 xcd  - .1 xce  - .3 xcf  - .7 xcg  - .9 xch  - .4 xda  - .2 xdb  -.4 xdc  -.6 xde  - .5 xdf  - .1 xdg -.3 xdh -.7 xea -.03 xeb -.5 xec -.7 xed -.05 xef -.99 xeg -.3 xeh = 0 
 OUTa:   xab + xac + xad + xae + xaf + xag + xah  = 2
 OUTb:   xba + xbc + xbd + xbe + xbf + xbg + xbh  = 2
 OUTc:   xca + xcb + xcd + xce + xcf + xcg + xch  = 2
 OUTd:   xda + xdb + xdc + xde + xdf + xdg + xdh  = 2
 OUTe:   xea + xeb + xec + xed + xef + xeg + xeh  = 2
 OUTf:   xfa + xfb + xfc + xfd + xfe + xfg + xfh  = 2
 OUTg:   xga + xgb + xgc + xgd + xge + xgf + xgh  = 2
 OUTh:   xha + xhb + xhc + xhd + xhe + xhf + xhg  = 2
 INa:    xba + xca + xda + xea + xfa + xga + xha  = 2
 INb:    xab + xcb + xdb + xeb + xfb + xgb + xhb  = 2
 INc:    xac + xbc + xdc + xec + xfc + xgc + xhc  = 2
 INd:    xad + xbd + xcd + xed + xfd + xgd + xhd  = 2
 INe:    xae + xbe + xce + xde + xfe + xge + xhe  = 2
 INf:    xaf + xbf + xcf + xdf + xef + xgf + xhf  = 2
 INg:    xag + xbg + xcg + xdg + xeg + xfg + xhg  = 2
 INh:    xah + xbh + xch + xdh + xeh + xfh + xgh  = 2
 FLOab:  floab - faab - fcab - fdab - feab - ffab - fgab - fhab  = 0
 FLOac:  floac - faac - fbac - fdac - feac - ffac - fgac - fhac  = 0
 FLOad:  fload - faad - fbad - fcad - fead - ffad - fgad - fhad  = 0
 FLOae:  floae - faae - fbae - fcae - fdae - ffae - fgae - fhae  = 0
 FLOaf:  floaf - faaf - fbaf - fcaf - fdaf - feaf - fgaf - fhaf  = 0
 FLOag:  floag - faag - fbag - fcag - fdag - feag - ffag - fhag  = 0
 FLOah:  floah - faah - fbah - fcah - fdah - feah - ffah - fgah  = 0
 FLOba:  floba - fbba - fcba - fdba - feba - ffba - fgba - fhba  = 0
 FLObc:  flobc - fabc - fbbc - fdbc - febc - ffbc - fgbc - fhbc  = 0
 FLObd:  flobd - fabd - fbbd - fcbd - febd - ffbd - fgbd - fhbd  = 0
 FLObe:  flobe - fabe - fbbe - fcbe - fdbe - ffbe - fgbe - fhbe  = 0
 FLObf:  flobf - fabf - fbbf - fcbf - fdbf - febf - fgbf - fhbf  = 0
 FLObg:  flobg - fabg - fbbg - fcbg - fdbg - febg - ffbg - fhbg  = 0
 FLObh:  flobh - fabh - fbbh - fcbh - fdbh - febh - ffbh - fgbh  = 0
 FLOca:  floca - fbca - fcca - fdca - feca - ffca - fgca - fhca  = 0
 FLOcb:  flocb - facb - fccb - fdcb - fecb - ffcb - fgcb - fhcb  = 0
 FLOcd:  flocd - facd - fbcd - fccd - fecd - ffcd - fgcd - fhcd  = 0
 FLOce:  floce - face - fbce - fcce - fdce - ffce - fgce - fhce  = 0
 FLOcf:  flocf - facf - fbcf - fccf - fdcf - fecf - fgcf - fhcf  = 0
 FLOcg:  flocg - facg - fbcg - fccg - fdcg - fecg - ffcg - fhcg  = 0
 FLOch:  floch - fach - fbch - fcch - fdch - fech - ffch - fgch  = 0
 FLOda:  floda - fbda - fcda - fdda - feda - ffda - fgda - fhda  = 0
 FLOdb:  flodb - fadb - fcdb - fddb - fedb - ffdb - fgdb - fhdb  = 0
 FLOdc:  flodc - fadc - fbdc - fddc - fedc - ffdc - fgdc - fhdc  = 0
 FLOde:  flode - fade - fbde - fcde - fdde - ffde - fgde - fhde  = 0
 FLOdf:  flodf - fadf - fbdf - fcdf - fddf - fedf - fgdf - fhdf  = 0
 FLOdg:  flodg - fadg - fbdg - fcdg - fddg - fedg - ffdg - fhdg  = 0
 FLOdh:  flodh - fadh - fbdh - fcdh - fddh - fedh - ffdh - fgdh  = 0
 FLOea:  floea - fbea - fcea - fdea - feea - ffea - fgea - fhea  = 0
 FLOeb:  floeb - faeb - fceb - fdeb - feeb - ffeb - fgeb - fheb  = 0
 FLOec:  floec - faec - fbec - fdec - feec - ffec - fgec - fhec  = 0
 FLOed:  floed - faed - fbed - fced - feed - ffed - fged - fhed  = 0
 FLOef:  floef - faef - fbef - fcef - fdef - feef - fgef - fhef  = 0
 FLOeg:  floeg - faeg - fbeg - fceg - fdeg - feeg - ffeg - fheg  = 0
 FLOeh:  floeh - faeh - fbeh - fceh - fdeh - feeh - ffeh - fgeh  = 0
 FLOfa:  flofa - fbfa - fcfa - fdfa - fefa - fffa - fgfa - fhfa  = 0
 FLOfb:  flofb - fafb - fcfb - fdfb - fefb - fffb - fgfb - fhfb  = 0
 FLOfc:  flofc - fafc - fbfc - fdfc - fefc - fffc - fgfc - fhfc  = 0
 FLOfd:  flofd - fafd - fbfd - fcfd - fefd - fffd - fgfd - fhfd  = 0
 FLOfe:  flofe - fafe - fbfe - fcfe - fdfe - fffe - fgfe - fhfe  = 0
 FLOfg:  flofg - fafg - fbfg - fcfg - fdfg - fefg - fffg - fhfg  = 0
 FLOfh:  flofh - fafh - fbfh - fcfh - fdfh - fefh - fffh - fgfh  = 0
 FLOga:  floga - fbga - fcga - fdga - fega - ffga - fgga - fhga  = 0
 FLOgb:  flogb - fagb - fcgb - fdgb - fegb - ffgb - fggb - fhgb  = 0
 FLOgc:  flogc - fagc - fbgc - fdgc - fegc - ffgc - fggc - fhgc  = 0
 FLOgd:  flogd - fagd - fbgd - fcgd - fegd - ffgd - fggd - fhgd  = 0
 FLOge:  floge - fage - fbge - fcge - fdge - ffge - fgge - fhge  = 0
 FLOgf:  flogf - fagf - fbgf - fcgf - fdgf - fegf - fggf - fhgf  = 0
 FLOgh:  flogh - fagh - fbgh - fcgh - fdgh - fegh - ffgh - fggh  = 0
 FLOha:  floha - fbha - fcha - fdha - feha - ffha - fgha - fhha  = 0
 FLOhb:  flohb - fahb - fchb - fdhb - fehb - ffhb - fghb - fhhb  = 0
 FLOhc:  flohc - fahc - fbhc - fdhc - fehc - ffhc - fghc - fhhc  = 0
 FLOhd:  flohd - fahd - fbhd - fchd - fehd - ffhd - fghd - fhhd  = 0
 FLOhe:  flohe - fahe - fbhe - fche - fdhe - ffhe - fghe - fhhe  = 0
 FLOhf:  flohf - fahf - fbhf - fchf - fdhf - fehf - fghf - fhhf  = 0
 FLOhg:  flohg - fahg - fbhg - fchg - fdhg - fehg - ffhg - fhhg  = 0
 CONab:  z - floab >= 0
 CONac:  z - floac >= 0
 CONad:  z - fload >= 0
 CONae:  z - floae >= 0
 CONaf:  z - floaf >= 0
 CONag:  z - floag >= 0
 CONah:  z - floah >= 0
 CONba:  z - floba >= 0
 CONbc:  z - flobc >= 0
 CONbd:  z - flobd >= 0
 CONbe:  z - flobe >= 0
 CONbf:  z - flobf >= 0
 CONbg:  z - flobg >= 0
 CONbh:  z - flobh >= 0
 CONca:  z - floca >= 0
 CONcb:  z - flocb >= 0
 CONcd:  z - flocd >= 0
 CONce:  z - floce >= 0
 CONcf:  z - flocf >= 0
 CONcg:  z - flocg >= 0
 CONch:  z - floch >= 0
 CONda:  z - floda >= 0
 CONdb:  z - flodb >= 0
 CONdc:  z - flodc >= 0
 CONde:  z - flode >= 0
 CONdf:  z - flodf >= 0
 CONdg:  z - flodg >= 0
 CONdh:  z - flodh >= 0
 CONea:  z - floea >= 0
 CONeb:  z - floeb >= 0
 CONec:  z - floec >= 0
 CONed:  z - floed >= 0
 CONef:  z - floef >= 0
 CONeg:  z - floeg >= 0
 CONeh:  z - floeh >= 0
 CONfa:  z - flofa >= 0
 CONfb:  z - flofb >= 0
 CONfc:  z - flofc >= 0
 CONfd:  z - flofd >= 0
 CONfe:  z - flofe >= 0
 CONfg:  z - flofg >= 0
 CONfh:  z - flofh >= 0
 CONga:  z - floga >= 0
 CONgb:  z - flogb >= 0
 CONgc:  z - flogc >= 0
 CONgd:  z - flogd >= 0
 CONge:  z - floge >= 0
 CONgf:  z - flogf >= 0
 CONgh:  z - flogh >= 0
 CONha:  z - floha >= 0
 CONhb:  z - flohb >= 0
 CONhc:  z - flohc >= 0
 CONhd:  z - flohd >= 0
 CONhe:  z - flohe >= 0
 CONhf:  z - flohf >= 0
 CONhg:  z - flohg >= 0
 BALab:  faab - fabc - fabd - fabe - fabf - fabg - fabh + facb + fadb + faeb
         + fafb + fagb + fahb  = 10
 BALac:  faac + fabc - facb - facd - face - facf - facg - fach + fadc + faec
         + fafc + fagc + fahc  = 7
 BALad:  faad + fabd + facd - fadb - fadc - fade - fadf - fadg - fadh + faed
         + fafd + fagd + fahd  = 13
 BALae:  faae + fabe + face + fade - faeb - faec - faed - faef - faeg - faeh
         + fafe + fage + fahe  = 12
 BALaf:  faaf + fabf + facf + fadf + faef - fafb - fafc - fafd - fafe - fafg
         - fafh + fagf + fahf  = 13
 BALag:  faag + fabg + facg + fadg + faeg + fafg - fagb - fagc - fagd - fage
         - fagf - fagh + fahg  = 6
 BALah:  faah + fabh + fach + fadh + faeh + fafh + fagh - fahb - fahc - fahd
         - fahe - fahf - fahg  = 13
 BALba:  - fbac - fbad - fbae - fbaf - fbag - fbah + fbba + fbca + fbda + fbea
         + fbfa + fbga + fbha  = 14
 BALbc:  fbac + fbbc - fbca - fbcd - fbce - fbcf - fbcg - fbch + fbdc + fbec
         + fbfc + fbgc + fbhc  = 15
 BALbd:  fbad + fbbd + fbcd - fbda - fbdc - fbde - fbdf - fbdg - fbdh + fbed
         + fbfd + fbgd + fbhd  = 13
 BALbe:  fbae + fbbe + fbce + fbde - fbea - fbec - fbed - fbef - fbeg - fbeh
         + fbfe + fbge + fbhe  = 12
 BALbf:  fbaf + fbbf + fbcf + fbdf + fbef - fbfa - fbfc - fbfd - fbfe - fbfg
         - fbfh + fbgf + fbhf  = 9
 BALbg:  fbag + fbbg + fbcg + fbdg + fbeg + fbfg - fbga - fbgc - fbgd - fbge
         - fbgf - fbgh + fbhg  = 9
 BALbh:  fbah + fbbh + fbch + fbdh + fbeh + fbfh + fbgh - fbha - fbhc - fbhd
         - fbhe - fbhf - fbhg  = 9
 BALca:  - fcab - fcad - fcae - fcaf - fcag - fcah + fcba + fcca + fcda + fcea
         + fcfa + fcga + fcha  = 13
 BALcb:  fcab - fcba - fcbd - fcbe - fcbf - fcbg - fcbh + fccb + fcdb + fceb
         + fcfb + fcgb + fchb  = 9
 BALcd:  fcad + fcbd + fccd - fcda - fcdb - fcde - fcdf - fcdg - fcdh + fced
         + fcfd + fcgd + fchd  = 11
 BALce:  fcae + fcbe + fcce + fcde - fcea - fceb - fced - fcef - fceg - fceh
         + fcfe + fcge + fche  = 6
 BALcf:  fcaf + fcbf + fccf + fcdf + fcef - fcfa - fcfb - fcfd - fcfe - fcfg
         - fcfh + fcgf + fchf  = 5
 BALcg:  fcag + fcbg + fccg + fcdg + fceg + fcfg - fcga - fcgb - fcgd - fcge
         - fcgf - fcgh + fchg  = 11
 BALch:  fcah + fcbh + fcch + fcdh + fceh + fcfh + fcgh - fcha - fchb - fchd
         - fche - fchf - fchg  = 8
 BALda:  - fdab - fdac - fdae - fdaf - fdag - fdah + fdba + fdca + fdda + fdea
         + fdfa + fdga + fdha  = 7
 BALdb:  fdab - fdba - fdbc - fdbe - fdbf - fdbg - fdbh + fdcb + fddb + fdeb
         + fdfb + fdgb + fdhb  = 8
 BALdc:  fdac + fdbc - fdca - fdcb - fdce - fdcf - fdcg - fdch + fddc + fdec
         + fdfc + fdgc + fdhc  = 15
 BALde:  fdae + fdbe + fdce + fdde - fdea - fdeb - fdec - fdef - fdeg - fdeh
         + fdfe + fdge + fdhe  = 7
 BALdf:  fdaf + fdbf + fdcf + fddf + fdef - fdfa - fdfb - fdfc - fdfe - fdfg
         - fdfh + fdgf + fdhf  = 6
 BALdg:  fdag + fdbg + fdcg + fddg + fdeg + fdfg - fdga - fdgb - fdgc - fdge
         - fdgf - fdgh + fdhg  = 11
 BALdh:  fdah + fdbh + fdch + fddh + fdeh + fdfh + fdgh - fdha - fdhb - fdhc
         - fdhe - fdhf - fdhg  = 9
 BALea:  - feab - feac - fead - feaf - feag - feah + feba + feca + feda + feea
         + fefa + fega + feha  = 8
 BALeb:  feab - feba - febc - febd - febf - febg - febh + fecb + fedb + feeb
         + fefb + fegb + fehb  = 12
 BALec:  feac + febc - feca - fecb - fecd - fecf - fecg - fech + fedc + feec
         + fefc + fegc + fehc  = 12
 BALed:  fead + febd + fecd - feda - fedb - fedc - fedf - fedg - fedh + feed
         + fefd + fegd + fehd  = 9
 BALef:  feaf + febf + fecf + fedf + feef - fefa - fefb - fefc - fefd - fefg
         - fefh + fegf + fehf  = 9
 BALeg:  feag + febg + fecg + fedg + feeg + fefg - fega - fegb - fegc - fegd
         - fegf - fegh + fehg  = 14
 BALeh:  feah + febh + fech + fedh + feeh + fefh + fegh - feha - fehb - fehc
         - fehd - fehf - fehg  = 11
 BALfa:  - ffab - ffac - ffad - ffae - ffag - ffah + ffba + ffca + ffda + ffea
         + fffa + ffga + ffha  = 5
 BALfb:  ffab - ffba - ffbc - ffbd - ffbe - ffbg - ffbh + ffcb + ffdb + ffeb
         + fffb + ffgb + ffhb  = 11
 BALfc:  ffac + ffbc - ffca - ffcb - ffcd - ffce - ffcg - ffch + ffdc + ffec
         + fffc + ffgc + ffhc  = 11
 BALfd:  ffad + ffbd + ffcd - ffda - ffdb - ffdc - ffde - ffdg - ffdh + ffed
         + fffd + ffgd + ffhd  = 7
 BALfe:  ffae + ffbe + ffce + ffde - ffea - ffeb - ffec - ffed - ffeg - ffeh
         + fffe + ffge + ffhe  = 9
 BALfg:  ffag + ffbg + ffcg + ffdg + ffeg + fffg - ffga - ffgb - ffgc - ffgd
         - ffge - ffgh + ffhg  = 15
 BALfh:  ffah + ffbh + ffch + ffdh + ffeh + fffh + ffgh - ffha - ffhb - ffhc
         - ffhd - ffhe - ffhg  = 12
 BALga:  - fgab - fgac - fgad - fgae - fgaf - fgah + fgba + fgca + fgda + fgea
         + fgfa + fgga + fgha  = 6
 BALgb:  fgab - fgba - fgbc - fgbd - fgbe - fgbf - fgbh + fgcb + fgdb + fgeb
         + fgfb + fggb + fghb  = 9
 BALgc:  fgac + fgbc - fgca - fgcb - fgcd - fgce - fgcf - fgch + fgdc + fgec
         + fgfc + fggc + fghc  = 7
 BALgd:  fgad + fgbd + fgcd - fgda - fgdb - fgdc - fgde - fgdf - fgdh + fged
         + fgfd + fggd + fghd  = 14
 BALge:  fgae + fgbe + fgce + fgde - fgea - fgeb - fgec - fged - fgef - fgeh
         + fgfe + fgge + fghe  = 10
 BALgf:  fgaf + fgbf + fgcf + fgdf + fgef - fgfa - fgfb - fgfc - fgfd - fgfe
         - fgfh + fggf + fghf  = 12
 BALgh:  fgah + fgbh + fgch + fgdh + fgeh + fgfh + fggh - fgha - fghb - fghc
         - fghd - fghe - fghf  = 7
 BALha:  - fhab - fhac - fhad - fhae - fhaf - fhag + fhba + fhca + fhda + fhea
         + fhfa + fhga + fhha  = 11
 BALhb:  fhab - fhba - fhbc - fhbd - fhbe - fhbf - fhbg + fhcb + fhdb + fheb
         + fhfb + fhgb + fhhb  = 7
 BALhc:  fhac + fhbc - fhca - fhcb - fhcd - fhce - fhcf - fhcg + fhdc + fhec
         + fhfc + fhgc + fhhc  = 8
 BALhd:  fhad + fhbd + fhcd - fhda - fhdb - fhdc - fhde - fhdf - fhdg + fhed
         + fhfd + fhgd + fhhd  = 6
 BALhe:  fhae + fhbe + fhce + fhde - fhea - fheb - fhec - fhed - fhef - fheg
         + fhfe + fhge + fhhe  = 10
 BALhf:  fhaf + fhbf + fhcf + fhdf + fhef - fhfa - fhfb - fhfc - fhfd - fhfe
         - fhfg + fhgf + fhhf  = 5
 BALhg:  fhag + fhbg + fhcg + fhdg + fheg + fhfg - fhga - fhgb - fhgc - fhgd
         - fhge - fhgf + fhhg  = 14
 VUBaab: - 74 xab + faab <= 0
 VUBcab: - 50 xab + fcab <= 0
 VUBdab: - 56 xab + fdab <= 0
 VUBeab: - 67 xab + feab <= 0
 VUBfab: - 65 xab + ffab <= 0
 VUBgab: - 59 xab + fgab <= 0
 VUBhab: - 50 xab + fhab <= 0
 VUBaac: - 74 xac + faac <= 0
 VUBbac: - 67 xac + fbac <= 0
 VUBdac: - 56 xac + fdac <= 0
 VUBeac: - 67 xac + feac <= 0
 VUBfac: - 65 xac + ffac <= 0
 VUBgac: - 59 xac + fgac <= 0
 VUBhac: - 50 xac + fhac <= 0
 VUBaad: - 74 xad + faad <= 0
 VUBbad: - 67 xad + fbad <= 0
 VUBcad: - 50 xad + fcad <= 0
 VUBead: - 67 xad + fead <= 0
 VUBfad: - 65 xad + ffad <= 0
 VUBgad: - 59 xad + fgad <= 0
 VUBhad: - 50 xad + fhad <= 0
 VUBaae: - 74 xae + faae <= 0
 VUBbae: - 67 xae + fbae <= 0
 VUBcae: - 50 xae + fcae <= 0
 VUBdae: - 56 xae + fdae <= 0
 VUBfae: - 65 xae + ffae <= 0
 VUBgae: - 59 xae + fgae <= 0
 VUBhae: - 50 xae + fhae <= 0
 VUBaaf: - 74 xaf + faaf <= 0
 VUBbaf: - 67 xaf + fbaf <= 0
 VUBcaf: - 50 xaf + fcaf <= 0
 VUBdaf: - 56 xaf + fdaf <= 0
 VUBeaf: - 67 xaf + feaf <= 0
 VUBgaf: - 59 xaf + fgaf <= 0
 VUBhaf: - 50 xaf + fhaf <= 0
 VUBaag: - 74 xag + faag <= 0
 VUBbag: - 67 xag + fbag <= 0
 VUBcag: - 50 xag + fcag <= 0
 VUBdag: - 56 xag + fdag <= 0
 VUBeag: - 67 xag + feag <= 0
 VUBfag: - 65 xag + ffag <= 0
 VUBhag: - 50 xag + fhag <= 0
 VUBaah: - 74 xah + faah <= 0
 VUBbah: - 67 xah + fbah <= 0
 VUBcah: - 50 xah + fcah <= 0
 VUBdah: - 56 xah + fdah <= 0
 VUBeah: - 67 xah + feah <= 0
 VUBfah: - 65 xah + ffah <= 0
 VUBgah: - 59 xah + fgah <= 0
 VUBbba: - 81 xba + fbba <= 0
 VUBcba: - 54 xba + fcba <= 0
 VUBdba: - 55 xba + fdba <= 0
 VUBeba: - 63 xba + feba <= 0
 VUBfba: - 59 xba + ffba <= 0
 VUBgba: - 56 xba + fgba <= 0
 VUBhba: - 54 xba + fhba <= 0
 VUBabc: - 64 xbc + fabc <= 0
 VUBbbc: - 81 xbc + fbbc <= 0
 VUBdbc: - 55 xbc + fdbc <= 0
 VUBebc: - 63 xbc + febc <= 0
 VUBfbc: - 59 xbc + ffbc <= 0
 VUBgbc: - 56 xbc + fgbc <= 0
 VUBhbc: - 54 xbc + fhbc <= 0
 VUBabd: - 64 xbd + fabd <= 0
 VUBbbd: - 81 xbd + fbbd <= 0
 VUBcbd: - 54 xbd + fcbd <= 0
 VUBebd: - 63 xbd + febd <= 0
 VUBfbd: - 59 xbd + ffbd <= 0
 VUBgbd: - 56 xbd + fgbd <= 0
 VUBhbd: - 54 xbd + fhbd <= 0
 VUBabe: - 64 xbe + fabe <= 0
 VUBbbe: - 81 xbe + fbbe <= 0
 VUBcbe: - 54 xbe + fcbe <= 0
 VUBdbe: - 55 xbe + fdbe <= 0
 VUBfbe: - 59 xbe + ffbe <= 0
 VUBgbe: - 56 xbe + fgbe <= 0
 VUBhbe: - 54 xbe + fhbe <= 0
 VUBabf: - 64 xbf + fabf <= 0
 VUBbbf: - 81 xbf + fbbf <= 0
 VUBcbf: - 54 xbf + fcbf <= 0
 VUBdbf: - 55 xbf + fdbf <= 0
 VUBebf: - 63 xbf + febf <= 0
 VUBgbf: - 56 xbf + fgbf <= 0
 VUBhbf: - 54 xbf + fhbf <= 0
 VUBabg: - 64 xbg + fabg <= 0
 VUBbbg: - 81 xbg + fbbg <= 0
 VUBcbg: - 54 xbg + fcbg <= 0
 VUBdbg: - 55 xbg + fdbg <= 0
 VUBebg: - 63 xbg + febg <= 0
 VUBfbg: - 59 xbg + ffbg <= 0
 VUBhbg: - 54 xbg + fhbg <= 0
 VUBabh: - 64 xbh + fabh <= 0
 VUBbbh: - 81 xbh + fbbh <= 0
 VUBcbh: - 54 xbh + fcbh <= 0
 VUBdbh: - 55 xbh + fdbh <= 0
 VUBebh: - 63 xbh + febh <= 0
 VUBfbh: - 59 xbh + ffbh <= 0
 VUBgbh: - 56 xbh + fgbh <= 0
 VUBbca: - 66 xca + fbca <= 0
 VUBcca: - 63 xca + fcca <= 0
 VUBdca: - 48 xca + fdca <= 0
 VUBeca: - 63 xca + feca <= 0
 VUBfca: - 59 xca + ffca <= 0
 VUBgca: - 58 xca + fgca <= 0
 VUBhca: - 53 xca + fhca <= 0
 VUBacb: - 67 xcb + facb <= 0
 VUBccb: - 63 xcb + fccb <= 0
 VUBdcb: - 48 xcb + fdcb <= 0
 VUBecb: - 63 xcb + fecb <= 0
 VUBfcb: - 59 xcb + ffcb <= 0
 VUBgcb: - 58 xcb + fgcb <= 0
 VUBhcb: - 53 xcb + fhcb <= 0
 VUBacd: - 67 xcd + facd <= 0
 VUBbcd: - 66 xcd + fbcd <= 0
 VUBccd: - 63 xcd + fccd <= 0
 VUBecd: - 63 xcd + fecd <= 0
 VUBfcd: - 59 xcd + ffcd <= 0
 VUBgcd: - 58 xcd + fgcd <= 0
 VUBhcd: - 53 xcd + fhcd <= 0
 VUBace: - 67 xce + face <= 0
 VUBbce: - 66 xce + fbce <= 0
 VUBcce: - 63 xce + fcce <= 0
 VUBdce: - 48 xce + fdce <= 0
 VUBfce: - 59 xce + ffce <= 0
 VUBgce: - 58 xce + fgce <= 0
 VUBhce: - 53 xce + fhce <= 0
 VUBacf: - 67 xcf + facf <= 0
 VUBbcf: - 66 xcf + fbcf <= 0
 VUBccf: - 63 xcf + fccf <= 0
 VUBdcf: - 48 xcf + fdcf <= 0
 VUBecf: - 63 xcf + fecf <= 0
 VUBgcf: - 58 xcf + fgcf <= 0
 VUBhcf: - 53 xcf + fhcf <= 0
 VUBacg: - 67 xcg + facg <= 0
 VUBbcg: - 66 xcg + fbcg <= 0
 VUBccg: - 63 xcg + fccg <= 0
 VUBdcg: - 48 xcg + fdcg <= 0
 VUBecg: - 63 xcg + fecg <= 0
 VUBfcg: - 59 xcg + ffcg <= 0
 VUBhcg: - 53 xcg + fhcg <= 0
 VUBach: - 67 xch + fach <= 0
 VUBbch: - 66 xch + fbch <= 0
 VUBcch: - 63 xch + fcch <= 0
 VUBdch: - 48 xch + fdch <= 0
 VUBech: - 63 xch + fech <= 0
 VUBfch: - 59 xch + ffch <= 0
 VUBgch: - 58 xch + fgch <= 0
 VUBbda: - 68 xda + fbda <= 0
 VUBcda: - 52 xda + fcda <= 0
 VUBdda: - 63 xda + fdda <= 0
 VUBeda: - 66 xda + feda <= 0
 VUBfda: - 63 xda + ffda <= 0
 VUBgda: - 51 xda + fgda <= 0
 VUBhda: - 55 xda + fhda <= 0
 VUBadb: - 61 xdb + fadb <= 0
 VUBcdb: - 52 xdb + fcdb <= 0
 VUBddb: - 63 xdb + fddb <= 0
 VUBedb: - 66 xdb + fedb <= 0
 VUBfdb: - 63 xdb + ffdb <= 0
 VUBgdb: - 51 xdb + fgdb <= 0
 VUBhdb: - 55 xdb + fhdb <= 0
 VUBadc: - 61 xdc + fadc <= 0
 VUBbdc: - 68 xdc + fbdc <= 0
 VUBddc: - 63 xdc + fddc <= 0
 VUBedc: - 66 xdc + fedc <= 0
 VUBfdc: - 63 xdc + ffdc <= 0
 VUBgdc: - 51 xdc + fgdc <= 0
 VUBhdc: - 55 xdc + fhdc <= 0
 VUBade: - 61 xde + fade <= 0
 VUBbde: - 68 xde + fbde <= 0
 VUBcde: - 52 xde + fcde <= 0
 VUBdde: - 63 xde + fdde <= 0
 VUBfde: - 63 xde + ffde <= 0
 VUBgde: - 51 xde + fgde <= 0
 VUBhde: - 55 xde + fhde <= 0
 VUBadf: - 61 xdf + fadf <= 0
 VUBbdf: - 68 xdf + fbdf <= 0
 VUBcdf: - 52 xdf + fcdf <= 0
 VUBddf: - 63 xdf + fddf <= 0
 VUBedf: - 66 xdf + fedf <= 0
 VUBgdf: - 51 xdf + fgdf <= 0
 VUBhdf: - 55 xdf + fhdf <= 0
 VUBadg: - 61 xdg + fadg <= 0
 VUBbdg: - 68 xdg + fbdg <= 0
 VUBcdg: - 52 xdg + fcdg <= 0
 VUBddg: - 63 xdg + fddg <= 0
 VUBedg: - 66 xdg + fedg <= 0
 VUBfdg: - 63 xdg + ffdg <= 0
 VUBhdg: - 55 xdg + fhdg <= 0
 VUBadh: - 61 xdh + fadh <= 0
 VUBbdh: - 68 xdh + fbdh <= 0
 VUBcdh: - 52 xdh + fcdh <= 0
 VUBddh: - 63 xdh + fddh <= 0
 VUBedh: - 66 xdh + fedh <= 0
 VUBfdh: - 63 xdh + ffdh <= 0
 VUBgdh: - 51 xdh + fgdh <= 0
 VUBbea: - 69 xea + fbea <= 0
 VUBcea: - 57 xea + fcea <= 0
 VUBdea: - 56 xea + fdea <= 0
 VUBeea: - 75 xea + feea <= 0
 VUBfea: - 61 xea + ffea <= 0
 VUBgea: - 55 xea + fgea <= 0
 VUBhea: - 51 xea + fhea <= 0
 VUBaeb: - 62 xeb + faeb <= 0
 VUBceb: - 57 xeb + fceb <= 0
 VUBdeb: - 56 xeb + fdeb <= 0
 VUBeeb: - 75 xeb + feeb <= 0
 VUBfeb: - 61 xeb + ffeb <= 0
 VUBgeb: - 55 xeb + fgeb <= 0
 VUBheb: - 51 xeb + fheb <= 0
 VUBaec: - 62 xec + faec <= 0
 VUBbec: - 69 xec + fbec <= 0
 VUBdec: - 56 xec + fdec <= 0
 VUBeec: - 75 xec + feec <= 0
 VUBfec: - 61 xec + ffec <= 0
 VUBgec: - 55 xec + fgec <= 0
 VUBhec: - 51 xec + fhec <= 0
 VUBaed: - 62 xed + faed <= 0
 VUBbed: - 69 xed + fbed <= 0
 VUBced: - 57 xed + fced <= 0
 VUBeed: - 75 xed + feed <= 0
 VUBfed: - 61 xed + ffed <= 0
 VUBged: - 55 xed + fged <= 0
 VUBhed: - 51 xed + fhed <= 0
 VUBaef: - 62 xef + faef <= 0
 VUBbef: - 69 xef + fbef <= 0
 VUBcef: - 57 xef + fcef <= 0
 VUBdef: - 56 xef + fdef <= 0
 VUBeef: - 75 xef + feef <= 0
 VUBgef: - 55 xef + fgef <= 0
 VUBhef: - 51 xef + fhef <= 0
 VUBaeg: - 62 xeg + faeg <= 0
 VUBbeg: - 69 xeg + fbeg <= 0
 VUBceg: - 57 xeg + fceg <= 0
 VUBdeg: - 56 xeg + fdeg <= 0
 VUBeeg: - 75 xeg + feeg <= 0
 VUBfeg: - 61 xeg + ffeg <= 0
 VUBheg: - 51 xeg + fheg <= 0
 VUBaeh: - 62 xeh + faeh <= 0
 VUBbeh: - 69 xeh + fbeh <= 0
 VUBceh: - 57 xeh + fceh <= 0
 VUBdeh: - 56 xeh + fdeh <= 0
 VUBeeh: - 75 xeh + feeh <= 0
 VUBfeh: - 61 xeh + ffeh <= 0
 VUBgeh: - 55 xeh + fgeh <= 0
 VUBbfa: - 72 xfa + fbfa <= 0
 VUBcfa: - 58 xfa + fcfa <= 0
 VUBdfa: - 57 xfa + fdfa <= 0
 VUBefa: - 66 xfa + fefa <= 0
 VUBffa: - 70 xfa + fffa <= 0
 VUBgfa: - 53 xfa + fgfa <= 0
 VUBhfa: - 56 xfa + fhfa <= 0
 VUBafb: - 61 xfb + fafb <= 0
 VUBcfb: - 58 xfb + fcfb <= 0
 VUBdfb: - 57 xfb + fdfb <= 0
 VUBefb: - 66 xfb + fefb <= 0
 VUBffb: - 70 xfb + fffb <= 0
 VUBgfb: - 53 xfb + fgfb <= 0
 VUBhfb: - 56 xfb + fhfb <= 0
 VUBafc: - 61 xfc + fafc <= 0
 VUBbfc: - 72 xfc + fbfc <= 0
 VUBdfc: - 57 xfc + fdfc <= 0
 VUBefc: - 66 xfc + fefc <= 0
 VUBffc: - 70 xfc + fffc <= 0
 VUBgfc: - 53 xfc + fgfc <= 0
 VUBhfc: - 56 xfc + fhfc <= 0
 VUBafd: - 61 xfd + fafd <= 0
 VUBbfd: - 72 xfd + fbfd <= 0
 VUBcfd: - 58 xfd + fcfd <= 0
 VUBefd: - 66 xfd + fefd <= 0
 VUBffd: - 70 xfd + fffd <= 0
 VUBgfd: - 53 xfd + fgfd <= 0
 VUBhfd: - 56 xfd + fhfd <= 0
 VUBafe: - 61 xfe + fafe <= 0
 VUBbfe: - 72 xfe + fbfe <= 0
 VUBcfe: - 58 xfe + fcfe <= 0
 VUBdfe: - 57 xfe + fdfe <= 0
 VUBffe: - 70 xfe + fffe <= 0
 VUBgfe: - 53 xfe + fgfe <= 0
 VUBhfe: - 56 xfe + fhfe <= 0
 VUBafg: - 61 xfg + fafg <= 0
 VUBbfg: - 72 xfg + fbfg <= 0
 VUBcfg: - 58 xfg + fcfg <= 0
 VUBdfg: - 57 xfg + fdfg <= 0
 VUBefg: - 66 xfg + fefg <= 0
 VUBffg: - 70 xfg + fffg <= 0
 VUBhfg: - 56 xfg + fhfg <= 0
 VUBafh: - 61 xfh + fafh <= 0
 VUBbfh: - 72 xfh + fbfh <= 0
 VUBcfh: - 58 xfh + fcfh <= 0
 VUBdfh: - 57 xfh + fdfh <= 0
 VUBefh: - 66 xfh + fefh <= 0
 VUBffh: - 70 xfh + fffh <= 0
 VUBgfh: - 53 xfh + fgfh <= 0
 VUBbga: - 72 xga + fbga <= 0
 VUBcga: - 52 xga + fcga <= 0
 VUBdga: - 52 xga + fdga <= 0
 VUBega: - 61 xga + fega <= 0
 VUBfga: - 55 xga + ffga <= 0
 VUBgga: - 65 xga + fgga <= 0
 VUBhga: - 47 xga + fhga <= 0
 VUBagb: - 68 xgb + fagb <= 0
 VUBcgb: - 52 xgb + fcgb <= 0
 VUBdgb: - 52 xgb + fdgb <= 0
 VUBegb: - 61 xgb + fegb <= 0
 VUBfgb: - 55 xgb + ffgb <= 0
 VUBggb: - 65 xgb + fggb <= 0
 VUBhgb: - 47 xgb + fhgb <= 0
 VUBagc: - 68 xgc + fagc <= 0
 VUBbgc: - 72 xgc + fbgc <= 0
 VUBdgc: - 52 xgc + fdgc <= 0
 VUBegc: - 61 xgc + fegc <= 0
 VUBfgc: - 55 xgc + ffgc <= 0
 VUBggc: - 65 xgc + fggc <= 0
 VUBhgc: - 47 xgc + fhgc <= 0
 VUBagd: - 68 xgd + fagd <= 0
 VUBbgd: - 72 xgd + fbgd <= 0
 VUBcgd: - 52 xgd + fcgd <= 0
 VUBegd: - 61 xgd + fegd <= 0
 VUBfgd: - 55 xgd + ffgd <= 0
 VUBggd: - 65 xgd + fggd <= 0
 VUBhgd: - 47 xgd + fhgd <= 0
 VUBage: - 68 xge + fage <= 0
 VUBbge: - 72 xge + fbge <= 0
 VUBcge: - 52 xge + fcge <= 0
 VUBdge: - 52 xge + fdge <= 0
 VUBfge: - 55 xge + ffge <= 0
 VUBgge: - 65 xge + fgge <= 0
 VUBhge: - 47 xge + fhge <= 0
 VUBagf: - 68 xgf + fagf <= 0
 VUBbgf: - 72 xgf + fbgf <= 0
 VUBcgf: - 52 xgf + fcgf <= 0
 VUBdgf: - 52 xgf + fdgf <= 0
 VUBegf: - 61 xgf + fegf <= 0
 VUBggf: - 65 xgf + fggf <= 0
 VUBhgf: - 47 xgf + fhgf <= 0
 VUBagh: - 68 xgh + fagh <= 0
 VUBbgh: - 72 xgh + fbgh <= 0
 VUBcgh: - 52 xgh + fcgh <= 0
 VUBdgh: - 52 xgh + fdgh <= 0
 VUBegh: - 61 xgh + fegh <= 0
 VUBfgh: - 55 xgh + ffgh <= 0
 VUBggh: - 65 xgh + fggh <= 0
 VUBbha: - 72 xha + fbha <= 0
 VUBcha: - 55 xha + fcha <= 0
 VUBdha: - 54 xha + fdha <= 0
 VUBeha: - 64 xha + feha <= 0
 VUBfha: - 58 xha + ffha <= 0
 VUBgha: - 58 xha + fgha <= 0
 VUBhha: - 61 xha + fhha <= 0
 VUBahb: - 61 xhb + fahb <= 0
 VUBchb: - 55 xhb + fchb <= 0
 VUBdhb: - 54 xhb + fdhb <= 0
 VUBehb: - 64 xhb + fehb <= 0
 VUBfhb: - 58 xhb + ffhb <= 0
 VUBghb: - 58 xhb + fghb <= 0
 VUBhhb: - 61 xhb + fhhb <= 0
 VUBahc: - 61 xhc + fahc <= 0
 VUBbhc: - 72 xhc + fbhc <= 0
 VUBdhc: - 54 xhc + fdhc <= 0
 VUBehc: - 64 xhc + fehc <= 0
 VUBfhc: - 58 xhc + ffhc <= 0
 VUBghc: - 58 xhc + fghc <= 0
 VUBhhc: - 61 xhc + fhhc <= 0
 VUBahd: - 61 xhd + fahd <= 0
 VUBbhd: - 72 xhd + fbhd <= 0
 VUBchd: - 55 xhd + fchd <= 0
 VUBehd: - 64 xhd + fehd <= 0
 VUBfhd: - 58 xhd + ffhd <= 0
 VUBghd: - 58 xhd + fghd <= 0
 VUBhhd: - 61 xhd + fhhd <= 0
 VUBahe: - 61 xhe + fahe <= 0
 VUBbhe: - 72 xhe + fbhe <= 0
 VUBche: - 55 xhe + fche <= 0
 VUBdhe: - 54 xhe + fdhe <= 0
 VUBfhe: - 58 xhe + ffhe <= 0
 VUBghe: - 58 xhe + fghe <= 0
 VUBhhe: - 61 xhe + fhhe <= 0
 VUBahf: - 61 xhf + fahf <= 0
 VUBbhf: - 72 xhf + fbhf <= 0
 VUBchf: - 55 xhf + fchf <= 0
 VUBdhf: - 54 xhf + fdhf <= 0
 VUBehf: - 64 xhf + fehf <= 0
 VUBghf: - 58 xhf + fghf <= 0
 VUBhhf: - 61 xhf + fhhf <= 0
 VUBahg: - 61 xhg + fahg <= 0
 VUBbhg: - 72 xhg + fbhg <= 0
 VUBchg: - 55 xhg + fchg <= 0
 VUBdhg: - 54 xhg + fdhg <= 0
 VUBehg: - 64 xhg + fehg <= 0
 VUBfhg: - 58 xhg + ffhg <= 0
 VUBhhg: - 61 xhg + fhhg <= 0
Bounds
 0 <= xab <= 1
 0 <= xac <= 1
 0 <= xad <= 1
 0 <= xae <= 1
 0 <= xaf <= 1
 0 <= xag <= 1
 0 <= xah <= 1
 0 <= xba <= 1
 0 <= xbc <= 1
 0 <= xbd <= 1
 0 <= xbe <= 1
 0 <= xbf <= 1
 0 <= xbg <= 1
 0 <= xbh <= 1
 0 <= xca <= 1
 0 <= xcb <= 1
 0 <= xcd <= 1
 0 <= xce <= 1
 0 <= xcf <= 1
 0 <= xcg <= 1
 0 <= xch <= 1
 0 <= xda <= 1
 0 <= xdb <= 1
 0 <= xdc <= 1
 0 <= xde <= 1
 0 <= xdf <= 1
 0 <= xdg <= 1
 0 <= xdh <= 1
 0 <= xea <= 1
 0 <= xeb <= 1
 0 <= xec <= 1
 0 <= xed <= 1
 0 <= xef <= 1
 0 <= xeg <= 1
 0 <= xeh <= 1
 0 <= xfa <= 1
 0 <= xfb <= 1
 0 <= xfc <= 1
 0 <= xfd <= 1
 0 <= xfe <= 1
 0 <= xfg <= 1
 0 <= xfh <= 1
 0 <= xga <= 1
 0 <= xgb <= 1
 0 <= xgc <= 1
 0 <= xgd <= 1
 0 <= xge <= 1
 0 <= xgf <= 1
 0 <= xgh <= 1
 0 <= xha <= 1
 0 <= xhb <= 1
 0 <= xhc <= 1
 0 <= xhd <= 1
 0 <= xhe <= 1
 0 <= xhf <= 1
 0 <= xhg <= 1
Binaries
 xab  xac  xad  xae  xaf  xag  xah  xba  xbc  xbd  xbe  xbf  xbg  xbh  xca 
 xcb  xcd  xce  xcf  xcg  xch  xda  xdb  xdc  xde  xdf  xdg  xdh  xea  xeb 
 xec  xed  xef  xeg  xeh 
End
